proyfinal/src/viki/013/andrea/andrea-localstore/experimentInOfficeAgust.take6/worker_2/55193fab-3a11-48c1-9415-371e182ac8c9.als.cnf.out
Reading from standard input... Use '--help' for help.
============================[ Problem Statistics ]=============================
|                                                                             |
|  Number of variables:         87638                                         |
|  Number of clauses:          161767                                         |
|  Parse time:                   0.04 s                                       |
|                                                                             |
============================[ Search Statistics ]==============================
| Conflicts |          ORIGINAL         |          LEARNT          | Progress |
|           |    Vars  Clauses Literals |    Limit  Clauses Lit/Cl |          |
===============================================================================
|       100 |   62439   105599   263294 |    38719      100      8 | 28.754 % |
|       250 |   62439   105599   263294 |    42591      250     18 | 28.754 % |
|       475 |   62439   105599   263294 |    46850      475     53 | 28.754 % |
|       812 |   62438   105555   263204 |    51535      809     56 | 28.755 % |
|      1318 |   55155    83538   208974 |    56689     1305     47 | 37.065 % |
|      2077 |   55148    83484   208865 |    62358     2060     47 | 37.073 % |
|      3216 |   55143    83455   208805 |    68594     3196     51 | 37.079 % |
|      4924 |   55143    83455   208805 |    75453     4904     51 | 37.079 % |
|      7486 |   55058    83071   207877 |    82998     7461     56 | 37.176 % |
|     11330 |   55012    82869   207395 |    91298    11293     57 | 37.228 % |
|     17096 |   54147    82480   206494 |   100428    16116     64 | 38.215 % |
===============================================================================
restarts              : 63
conflicts             : 17487          (8770 /sec)
decisions             : 66941          (0.00 % random) (33574 /sec)
propagations          : 20931833       (10498151 /sec)
conflict literals     : 1108825        (48.59 % deleted)
Memory used           : 36.19 MB
CPU time              : 1.99386 s

UNSATISFIABLE
